p cnf 60 73
-1 2 48 -49 0 
-2 1 49 -48 0 
-3 4 48 -49 0 
-4 3 49 -48 0 
-5 50 -48 -49 -3 -4 0 
-6 8 9 40 44 49 -48 0 
-7 50 -48 -49 -3 -4 0 
-8 6 9 40 44 48 -49 0 
-9 6 8 40 44 48 -49 0 
-8 6 9 40 44 50 -48 -49 -3 -4 0 
-10 50 -48 -49 -3 -4 0 
-11 -12 35 -13 50 -48 -49 -3 -4 0 
-5 -12 35 -13 50 -48 -49 -3 -4 0 
-14 25 50 -48 -49 -3 -4 0 
-11 -15 50 -48 -49 -3 -4 0 
-16 -15 50 -48 -49 -3 -4 0 
-17 50 -48 -49 -3 -4 0 
-18 -19 20 50 -48 -49 -3 -4 0 
-20 19 -21 37 50 -48 -49 -3 -4 0 
-16 -20 19 -21 37 50 -48 -49 -3 -4 0 
-7 -20 19 -21 37 50 -48 -49 -3 -4 0 
-20 19 -22 50 -48 -49 -3 -4 0 
-20 19 -21 37 -11 -12 35 50 -48 -49 -3 -4 0 
-18 50 -48 -49 -3 -4 0 
-23 50 -48 -49 -3 -4 0 
-24 50 -48 -49 -3 -4 0 
-1 2 50 -48 -49 -3 -4 0 
-25 14 50 -48 -49 -3 -4 0 
-2 1 50 -48 -49 -3 -4 0 
-25 14 50 -48 -49 -3 -4 0 
-26 50 -48 -49 -3 -4 0 
-27 34 50 -48 -49 -3 -4 0 
-28 -11 -15 50 -48 -49 -3 -4 0 
-15 50 -48 -49 -3 -4 0 
-11 -12 35 50 -48 -49 -3 -4 0 
-10 -29 45 -30 51 -53 -54 -55 -56 -57 -58 -59 -60 0 
-31 41 46 48 -49 0 
-32 50 -48 -49 -3 -4 0 
-33 48 -49 0 
-34 27 49 -48 0 
-35 12 -36 -11 -20 19 -37 21 -38 52 -48 -49 0 
-13 50 -48 -49 -3 -4 0 
-7 48 -49 0 
-16 50 -48 -49 -3 -4 0 
-28 50 -48 -49 -3 -4 0 
-39 48 -49 0 
-15 52 -48 -49 0 
-35 12 51 -53 -54 -55 -56 -57 -58 -59 -60 0 
-40 6 8 9 44 53 -51 -54 -55 -56 -57 -58 -59 -60 0 
-2 1 53 -51 -54 -55 -56 -57 -58 -59 -60 0 
-41 31 46 53 -51 -54 -55 -56 -57 -58 -59 -60 0 
-42 48 -49 0 
-12 35 48 -49 0 
-43 48 -49 0 
-32 -22 54 -51 -53 -55 -56 -57 -58 -59 -60 0 
-16 -21 37 50 -48 -49 -3 -4 0 
-7 -21 37 50 -48 -49 -3 -4 0 
-21 37 51 -53 -54 -55 -56 -57 -58 -59 -60 0 
-44 6 8 9 40 -37 21 54 -51 -53 -55 -56 -57 -58 -59 -60 0 
-33 -37 21 54 -51 -53 -55 -56 -57 -58 -59 -60 0 
-10 -45 29 53 -51 -54 -55 -56 -57 -58 -59 -60 0 
-37 21 55 -51 -53 -54 -56 -57 -58 -59 -60 0 
-32 -37 21 56 -51 -53 -54 -55 -57 -58 -59 -60 0 
-5 -37 21 57 -51 -53 -54 -55 -56 -58 -59 -60 0 
-8 6 9 40 44 -11 -12 35 50 -48 -49 -3 -4 0 
-46 31 41 49 -48 0 
-47 48 -49 0 
-39 50 -48 -49 -3 -4 0 
-16 58 -51 -53 -54 -55 -56 -57 -59 -60 0 
-39 59 -51 -53 -54 -55 -56 -57 -58 -60 0 
-16 60 -51 -53 -54 -55 -56 -57 -58 -59 0 
-16 59 -51 -53 -54 -55 -56 -57 -58 -60 0 
-39 60 -51 -53 -54 -55 -56 -57 -58 -59 0 
